%%%mzn-stat: initTime=0.022841532
%%%mzn-stat: objective=406
%%%mzn-stat: nodes=18843
%%%mzn-stat: restarts=1
%%%mzn-stat: peakDepth=1631
%%%mzn-stat: solveTime=11.317712683
%%%mzn-stat: variables=2538
%%%mzn-stat: propagators=2098
%%%mzn-stat: failures=13657
%%%mzn-stat: propagations=944486
%%%mzn-stat: nogoods=13657
%%%mzn-stat: AverageConflictSize=29.312733396792854
%%%mzn-stat: NumUnitNogoodsLearned=184
%%%mzn-stat: AverageLearnedNogoodLength=205.83978911913306
%%%mzn-stat: AverageBacktrackAmount=0
%%%mzn-stat: AverageLbd=45.03939371750751
%%%mzn-stat-end
maxleg = 406;
succ = array1d(1..100,[79, 52, 26, 24, 84, 97, 37, 77, 68, 47, 94, 92, 70, 100, 99, 59, 81, 86, 57, 12, 58, 19, 95, 22, 51, 5, 65, 8, 91, 31, 6, 39, 90, 43, 27, 3, 53, 67, 40, 25, 7, 18, 32, 60, 82, 75, 71, 42, 34, 45, 16, 1, 74, 73, 46, 17, 30, 33, 41, 98, 83, 29, 69, 9, 11, 72, 48, 50, 89, 78, 62, 76, 49, 87, 54, 64, 80, 88, 85, 14, 10, 38, 23, 96, 61, 44, 15, 21, 28, 4, 13, 36, 56, 2, 66, 55, 63, 93, 35, 20]);
% time elapsed: 13.62 s
----------
%%%mzn-stat: initTime=0.022841532
%%%mzn-stat: objective=404
%%%mzn-stat: nodes=1270099
%%%mzn-stat: restarts=2
%%%mzn-stat: peakDepth=1631
%%%mzn-stat: solveTime=1365.672872158
%%%mzn-stat: variables=2538
%%%mzn-stat: propagators=2098
%%%mzn-stat: failures=1233702
%%%mzn-stat: propagations=75258383
%%%mzn-stat: nogoods=1233702
%%%mzn-stat: AverageConflictSize=64.44880449249494
%%%mzn-stat: NumUnitNogoodsLearned=184
%%%mzn-stat: AverageLearnedNogoodLength=87.88160106735663
%%%mzn-stat: AverageBacktrackAmount=0
%%%mzn-stat: AverageLbd=42.22775516291617
%%%mzn-stat-end
maxleg = 404;
succ = array1d(1..100,[79, 52, 26, 24, 84, 97, 37, 77, 68, 47, 94, 92, 70, 100, 99, 59, 81, 86, 57, 12, 58, 19, 95, 22, 51, 5, 65, 8, 91, 31, 6, 39, 90, 43, 27, 3, 53, 67, 40, 25, 7, 18, 71, 60, 82, 75, 32, 42, 34, 45, 16, 1, 74, 73, 46, 17, 30, 33, 41, 98, 83, 29, 69, 9, 11, 72, 55, 50, 89, 78, 62, 76, 49, 87, 54, 64, 80, 88, 85, 14, 10, 38, 23, 96, 61, 44, 15, 21, 28, 4, 13, 36, 56, 2, 66, 48, 63, 93, 35, 20]);
% time elapsed: 1367.97 s
----------
%%%mzn-stat: initTime=0.022841532
%%%mzn-stat: objective=196
%%%mzn-stat: nodes=1271182
%%%mzn-stat: restarts=2
%%%mzn-stat: peakDepth=1631
%%%mzn-stat: solveTime=1365.720116797
%%%mzn-stat: variables=2538
%%%mzn-stat: propagators=2098
%%%mzn-stat: failures=1233702
%%%mzn-stat: propagations=75262484
%%%mzn-stat: nogoods=1233702
%%%mzn-stat: AverageConflictSize=64.44880449249494
%%%mzn-stat: NumUnitNogoodsLearned=184
%%%mzn-stat: AverageLearnedNogoodLength=87.88160106735663
%%%mzn-stat: AverageBacktrackAmount=0
%%%mzn-stat: AverageLbd=42.22775516291617
%%%mzn-stat-end
maxleg = 196;
succ = array1d(1..100,[79, 52, 26, 24, 84, 97, 37, 77, 31, 47, 61, 68, 70, 100, 99, 51, 73, 86, 57, 12, 58, 19, 95, 16, 71, 82, 23, 8, 91, 59, 6, 39, 90, 62, 27, 3, 53, 46, 43, 25, 7, 67, 28, 42, 80, 75, 32, 55, 34, 14, 22, 11, 74, 40, 60, 17, 30, 33, 41, 98, 83, 29, 64, 5, 35, 72, 48, 94, 89, 78, 81, 76, 49, 87, 54, 92, 69, 88, 85, 9, 10, 38, 1, 96, 65, 44, 15, 21, 18, 4, 13, 45, 56, 2, 66, 36, 63, 93, 50, 20]);
% time elapsed: 1368.02 s
----------
==========
% time elapsed: 1368.03 s
%%%mzn-stat: initTime=0.022841532
%%%mzn-stat: objective=196
%%%mzn-stat: nodes=1271182
%%%mzn-stat: restarts=2
%%%mzn-stat: peakDepth=1631
%%%mzn-stat: solveTime=1365.721822758
%%%mzn-stat: variables=2538
%%%mzn-stat: propagators=2098
%%%mzn-stat: failures=1233703
%%%mzn-stat: propagations=75263532
%%%mzn-stat: nogoods=1233703
%%%mzn-stat: AverageConflictSize=64.44876360031547
%%%mzn-stat: NumUnitNogoodsLearned=185
%%%mzn-stat: AverageLearnedNogoodLength=87.88153064392321
%%%mzn-stat: AverageBacktrackAmount=0
%%%mzn-stat: AverageLbd=42.22772174502291
%%%mzn-stat-end
